Selected objective sense:  MINIMIZE
Selected objective  name:  OBJ
Selected RHS        name:  RHS1
CPXPARAM_Preprocessing_Presolve                  0
CPXPARAM_LPMethod                                4
CPXPARAM_Threads                                 1
CPXPARAM_SolutionType                            2
CPXPARAM_TimeLimit                               3600
Tried aggregator 0 times.
DUAL formed by presolve
Reduced presolve eliminated 381 rows and 8442 columns.
Reduced LP has 32662 rows, 8213 columns, and 1483496 nonzeros.
Presolve time = 0.74 sec. (487.99 ticks)
Parallel mode: none, using 1 thread for barrier

***NOTE: Found 52 dense columns.

Number of nonzeros in lower triangle of A*A' = 59752
Using Approximate Minimum Degree ordering
Total time for automatic ordering = 0.01 sec. (5.59 ticks)
Summary statistics for Cholesky factor:
  Rows in Factor            = 32714
  Integer space required    = 478666
  Total non-zeros in factor = 1737564
  Total FP ops to factor    = 93787090
 Itn      Primal Obj        Dual Obj  Prim Inf Upper Inf  Dual Inf Inf Ratio
   0  -7.1376768e+06   1.2073100e+06  9.38e+06  1.33e+03  2.18e+06  1.00e+00
   1  -8.4046211e+05   3.7555943e+05  8.98e+05  1.27e+02  8.68e+05  1.17e-02
   2  -2.2919549e+05   6.3847985e+04  1.84e+05  2.60e+01  2.63e+05  1.99e-02
   3  -6.3305760e+04   2.1910991e+04  4.77e+04  6.74e+00  1.03e+05  7.17e-02
   4  -2.8840023e+04   6.1727482e+03  2.12e+04  3.00e+00  3.31e+04  1.78e-01
   5  -1.6430508e+04   3.2782197e+03  1.24e+04  1.76e+00  1.41e+04  2.42e-01
   6  -2.1863050e+03   7.4383860e+02  1.93e+03  2.72e-01  1.58e+03  7.23e-01
   7  -1.6011232e+03   4.2167961e+02  1.21e+03  1.70e-01  1.21e+03  1.02e+00
   8  -7.9114763e+02   4.9781081e+01  3.56e+02  5.03e-02  6.95e+02  1.96e+00
   9  -7.2481045e+02  -1.9058918e+02  2.75e+02  3.89e-02  3.90e+02  4.44e+00
  10  -6.3506808e+02  -2.6797638e+02  1.84e+02  2.60e-02  2.76e+02  7.15e+00
  11  -5.0236654e+02  -3.1477009e+02  6.91e+01  9.76e-03  1.92e+02  1.12e+01
  12  -4.7541279e+02  -3.5664255e+02  4.04e+01  5.71e-03  1.27e+02  2.02e+01
  13  -4.5412782e+02  -3.7964208e+02  2.21e+01  3.13e-03  8.60e+01  3.49e+01
  14  -4.4603412e+02  -3.9504714e+02  1.58e+01  2.24e-03  5.72e+01  6.19e+01
  15  -4.4311448e+02  -3.9980212e+02  1.39e+01  1.96e-03  4.73e+01  8.00e+01
  16  -4.3322578e+02  -4.0802095e+02  7.42e+00  1.05e-03  2.97e+01  1.48e+02
  17  -4.3239926e+02  -4.0978522e+02  6.89e+00  9.74e-04  2.58e+01  1.78e+02
  18  -4.2838518e+02  -4.1314257e+02  4.29e+00  6.06e-04  1.86e+01  2.79e+02
  19  -4.2708610e+02  -4.1442303e+02  3.45e+00  4.87e-04  1.58e+01  3.46e+02
  20  -4.2434177e+02  -4.1611104e+02  1.59e+00  2.25e-04  1.23e+01  4.87e+02
  21  -4.2321742e+02  -4.1635601e+02  6.54e-01  9.24e-05  1.18e+01  5.13e+02
  22  -4.2281583e+02  -4.1952386e+02  2.64e-01  3.73e-05  5.77e+00  1.54e+03
  23  -4.2268763e+02  -4.2055695e+02  2.13e-01  3.01e-05  3.50e+00  3.13e+03
  24  -4.2252752e+02  -4.2069273e+02  1.56e-01  2.21e-05  3.19e+00  3.54e+03
  25  -4.2242823e+02  -4.2118565e+02  1.21e-01  1.71e-05  2.07e+00  6.45e+03
  26  -4.2229697e+02  -4.2129987e+02  7.58e-02  1.07e-05  1.80e+00  7.70e+03
  27  -4.2225725e+02  -4.2163582e+02  6.14e-02  8.68e-06  1.03e+00  1.68e+04
  28  -4.2217589e+02  -4.2174379e+02  3.46e-02  4.89e-06  7.77e-01  2.43e+04
  29  -4.2214400e+02  -4.2181429e+02  2.29e-02  3.24e-06  6.14e-01  3.29e+04
  30  -4.2210767e+02  -4.2188790e+02  9.76e-03  1.38e-06  4.45e-01  4.72e+04
  31  -4.2209571e+02  -4.2192299e+02  4.62e-03  6.54e-07  3.65e-01  6.00e+04
  32  -4.2208884e+02  -4.2200213e+02  2.37e-03  3.34e-07  1.83e-01  1.31e+05
  33  -4.2208387e+02  -4.2203882e+02  1.09e-03  1.54e-07  9.64e-02  2.54e+05
  34  -4.2208175e+02  -4.2206653e+02  3.01e-04  4.25e-08  3.30e-02  1.37e+06
  35  -4.2208007e+02  -4.2207695e+02  9.70e-05  1.37e-08  6.03e-03  8.20e+06
  36  -4.2207933e+02  -4.2207903e+02  1.01e-05  1.43e-09  5.61e-04  8.96e+07
  37  -4.2207929e+02  -4.2207923e+02  5.18e-06  7.32e-10  3.13e-05  1.66e+09
  38  -4.2207928e+02  -4.2207923e+02  4.28e-06  6.05e-10  2.73e-05  1.80e+09
  39  -4.2207925e+02  -4.2207924e+02  1.02e-06  1.44e-10  2.24e-06  1.56e+10
Barrier time = 4.38 sec. (4567.55 ticks)

Total time on 1 threads = 4.38 sec. (4567.55 ticks)
Solve time: 4.38088366
Barrier iterations: 39
